30
1 44 71
2 61 80
3 86 23
4 34 27
5 70 17
6 77 97
7 51 96
8 14 24
9 53 59
10 69 9
11 11 34
12 54 38
13 85 60
14 66 27
15 62 16
16 80 50
17 31 81
18 59 94
19 88 47
20 17 57
21 10 35
22 3 54
23 82 10
24 80 10
25 21 45
26 82 36
27 93 83
28 0 34
29 39 39
30 93 22
